NAME: ACTUAL_TOURS/amz2269
TYPE: TOUR
COMMENT: RouteID_f0029de0-ee56-4d91-8e0e-f6707d576b31
DIMENSION: 123
TOUR_SECTION
87
36
122
1
114
83
39
97
17
119
121
33
86
111
118
80
42
3
19
89
32
81
100
44
102
47
38
58
123
31
50
113
84
26
116
54
4
34
78
24
60
91
112
51
23
55
52
41
106
30
46
9
40
71
7
103
56
49
62
98
108
109
115
120
45
99
12
92
8
28
105
95
63
5
93
11
13
6
14
22
61
110
70
37
76
2
27
90
20
74
43
57
53
104
15
85
18
35
65
72
73
82
88
68
117
29
96
101
79
21
77
94
64
16
59
69
107
10
67
48
66
25
75
-1
EOF
